rust/resources/mps/WhiskasModel2.mps
NAME        WhiskasModel2
ROWS
 N  Total_Cost_of_Ingredients_per_can
 G  FatRequirement
 L  FibreRequirement
 E  PercentagesSum
 G  ProteinRequirement
 L  SaltRequirement
COLUMNS
    Ingr_BEEF  Total_Cost_of_Ingredients_per_can  0.008
    Ingr_BEEF  FatRequirement  0.1
    Ingr_BEEF  FibreRequirement  0.005
    Ingr_BEEF  PercentagesSum  1
    Ingr_BEEF  ProteinRequirement  0.2
    Ingr_BEEF  SaltRequirement  0.005
    Ingr_CHICKEN  Total_Cost_of_Ingredients_per_can  0.013
    Ingr_CHICKEN  FatRequirement  0.08
    Ingr_CHICKEN  FibreRequirement  0.001
    Ingr_CHICKEN  PercentagesSum  1
    Ingr_CHICKEN  ProteinRequirement  0.1
    Ingr_CHICKEN  SaltRequirement  0.002
    Ingr_GEL  Total_Cost_of_Ingredients_per_can  0.001
    Ingr_GEL  PercentagesSum  1
    Ingr_MUTTON  Total_Cost_of_Ingredients_per_can  0.01
    Ingr_MUTTON  FatRequirement  0.11
    Ingr_MUTTON  FibreRequirement  0.003
    Ingr_MUTTON  PercentagesSum  1
    Ingr_MUTTON  ProteinRequirement  0.15
    Ingr_MUTTON  SaltRequirement  0.007
    Ingr_RICE  Total_Cost_of_Ingredients_per_can  0.002
    Ingr_RICE  FatRequirement  0.01
    Ingr_RICE  FibreRequirement  0.1
    Ingr_RICE  PercentagesSum  1
    Ingr_RICE  SaltRequirement  0.002
    Ingr_WHEAT  Total_Cost_of_Ingredients_per_can  0.005
    Ingr_WHEAT  FatRequirement  0.01
    Ingr_WHEAT  FibreRequirement  0.15
    Ingr_WHEAT  PercentagesSum  1
    Ingr_WHEAT  ProteinRequirement  0.04
    Ingr_WHEAT  SaltRequirement  0.008
RHS
    RHS_V     FatRequirement  6
    RHS_V     FibreRequirement  2
    RHS_V     PercentagesSum  100
    RHS_V     ProteinRequirement  8
    RHS_V     SaltRequirement  0.4
ENDATA
